NAME          
ROWS
 N  OBJ
 L  c1
COLUMNS
    MARKER    'MARKER'                 'INTORG'
    x[1]      c1        700
    x[1]      OBJ       -761
    x[2]      c1        622
    x[2]      OBJ       -598
    x[3]      c1        921
    x[3]      OBJ       -927
    x[4]      c1        170
    x[4]      OBJ       -190
    x[5]      c1        385
    x[5]      OBJ       -483
    x[6]      c1        194
    x[6]      OBJ       -169
    x[7]      c1        -87
    x[7]      OBJ       -13
    x[8]      c1        326
    x[8]      OBJ       -404
    x[9]      c1        934
    x[9]      OBJ       -953
    x[10]     c1        747
    x[10]     OBJ       -792
    x[11]     c1        690
    x[11]     OBJ       -646
    x[12]     c1        28
    x[12]     OBJ       -101
    x[13]     c1        969
    x[13]     OBJ       -1000
    x[14]     c1        1063
    x[14]     OBJ       -971
    x[15]     c1        884
    x[15]     OBJ       -925
    x[16]     c1        747
    x[16]     OBJ       -718
    x[17]     c1        576
    x[17]     OBJ       -552
    x[18]     c1        889
    x[18]     OBJ       -843
    x[19]     c1        258
    x[19]     OBJ       -299
    x[20]     c1        691
    x[20]     OBJ       -686
    x[21]     c1        214
    x[21]     OBJ       -253
    x[22]     c1        794
    x[22]     OBJ       -871
    x[23]     c1        572
    x[23]     OBJ       -504
    x[24]     c1        73
    x[24]     OBJ       -4
    x[25]     c1        770
    x[25]     OBJ       -868
    x[26]     c1        302
    x[26]     OBJ       -217
    x[27]     c1        417
    x[27]     OBJ       -476
    x[28]     c1        643
    x[28]     OBJ       -553
    x[29]     c1        162
    x[29]     OBJ       -72
    x[30]     c1        617
    x[30]     OBJ       -648
RHS
    rhs       c1        8136
RANGES
BOUNDS
 LO bounds    x[1]      0
 PL bounds    x[1]
 LO bounds    x[2]      0
 PL bounds    x[2]
 LO bounds    x[3]      0
 PL bounds    x[3]
 LO bounds    x[4]      0
 PL bounds    x[4]
 LO bounds    x[5]      0
 PL bounds    x[5]
 LO bounds    x[6]      0
 PL bounds    x[6]
 LO bounds    x[7]      0
 PL bounds    x[7]
 LO bounds    x[8]      0
 PL bounds    x[8]
 LO bounds    x[9]      0
 PL bounds    x[9]
 LO bounds    x[10]     0
 PL bounds    x[10]
 LO bounds    x[11]     0
 PL bounds    x[11]
 LO bounds    x[12]     0
 PL bounds    x[12]
 LO bounds    x[13]     0
 PL bounds    x[13]
 LO bounds    x[14]     0
 PL bounds    x[14]
 LO bounds    x[15]     0
 PL bounds    x[15]
 LO bounds    x[16]     0
 PL bounds    x[16]
 LO bounds    x[17]     0
 PL bounds    x[17]
 LO bounds    x[18]     0
 PL bounds    x[18]
 LO bounds    x[19]     0
 PL bounds    x[19]
 LO bounds    x[20]     0
 PL bounds    x[20]
 LO bounds    x[21]     0
 PL bounds    x[21]
 LO bounds    x[22]     0
 PL bounds    x[22]
 LO bounds    x[23]     0
 PL bounds    x[23]
 LO bounds    x[24]     0
 PL bounds    x[24]
 LO bounds    x[25]     0
 PL bounds    x[25]
 LO bounds    x[26]     0
 PL bounds    x[26]
 LO bounds    x[27]     0
 PL bounds    x[27]
 LO bounds    x[28]     0
 PL bounds    x[28]
 LO bounds    x[29]     0
 PL bounds    x[29]
 LO bounds    x[30]     0
 PL bounds    x[30]
ENDATA
